<?xml version = "1.0" standalone="yes"?>
<!-- This file has been generated by DOcplex version 2.23.222  -->
<CPLEXSolution version="1.0">
 <header
   problemName="CVRP"
   objectiveValue="10008"
  />
 <variables>
  <variable name="x_0_2" index="1" value="1.00000"/>
  <variable name="x_0_3" index="2" value="1.00000"/>
  <variable name="x_0_4" index="3" value="1.00000"/>
  <variable name="x_0_5" index="4" value="1.00000"/>
  <variable name="x_0_7" index="6" value="1.00000"/>
  <variable name="x_0_8" index="7" value="1.00000"/>
  <variable name="x_0_13" index="12" value="1.00000"/>
  <variable name="x_0_15" index="14" value="1.00000"/>
  <variable name="x_1_0" index="17" value="1.00000"/>
  <variable name="x_2_16" index="49" value="1.00000"/>
  <variable name="x_3_12" index="62" value="1.00000"/>
  <variable name="x_4_9" index="76" value="1.00000"/>
  <variable name="x_5_0" index="85" value="1.00000"/>
  <variable name="x_6_0" index="102" value="1.00000"/>
  <variable name="x_7_10" index="128" value="1.00000"/>
  <variable name="x_8_11" index="146" value="1.00000"/>
  <variable name="x_9_0" index="153" value="1.00000"/>
  <variable name="x_10_0" index="170" value="1.00000"/>
  <variable name="x_11_6" index="193" value="1.00000"/>
  <variable name="x_12_0" index="204" value="1.00000"/>
  <variable name="x_13_1" index="222" value="1.00000"/>
  <variable name="x_14_17" index="254" value="1.00000"/>
  <variable name="x_15_0" index="255" value="1.00000"/>
  <variable name="x_16_14" index="286" value="1.00000"/>
  <variable name="x_17_0" index="289" value="1.00000"/>
  <variable name="u_1" index="306" value="24.00000"/>
  <variable name="u_2" index="307" value="7.00000"/>
  <variable name="u_3" index="308" value="18.00000"/>
  <variable name="u_4" index="309" value="2.00000"/>
  <variable name="u_5" index="310" value="20.00000"/>
  <variable name="u_6" index="311" value="23.00000"/>
  <variable name="u_7" index="312" value="10.00000"/>
  <variable name="u_8" index="313" value="7.00000"/>
  <variable name="u_9" index="314" value="21.00000"/>
  <variable name="u_10" index="315" value="11.00000"/>
  <variable name="u_11" index="316" value="15.00000"/>
  <variable name="u_12" index="317" value="22.00000"/>
  <variable name="u_13" index="318" value="6.00000"/>
  <variable name="u_14" index="319" value="23.00000"/>
  <variable name="u_15" index="320" value="20.00000"/>
  <variable name="u_16" index="321" value="21.00000"/>
  <variable name="u_17" index="322" value="24.00000"/>
 </variables>
</CPLEXSolution>
